
  23    0


   0  13 2 3 4 5 7 8 9 17 18 19 20 21 22 
   8   5 16 15 12 11 6 
   3   5 14 13 12 11 6 
   9   3 13 11 10 
   6   2 13 11 
   1   1 10 
   3   1 14 
   9   1 12 
   3   1 10 
  10   1 23
   1   1 23
   5   1 23
   4   1 23
   4   1 23
   3   1 23
   6   1 23
   3   1 23
   3   1 23
   4   1 23
   7   1 23
   3   1 23
   2   1 23
   0   0 
